
Gurobi 7.0.1 (linux64, Python) logging started Thu Dec  1 23:21:00 2016

Changed value of parameter IntFeasTol to 1e-09
   Prev: 1e-05  Min: 1e-09  Max: 0.1  Default: 1e-05
Changed value of parameter TimeLimit to 120.0
   Prev: 1e+100  Min: 0.0  Max: 1e+100  Default: 1e+100
Optimize a model with 5851 rows, 3120 columns and 15437 nonzeros
Variable types: 0 continuous, 3120 integer (3120 binary)
Coefficient statistics:
  Matrix range     [1e+00, 3e+00]
  Objective range  [1e+00, 1e+00]
  Bounds range     [1e+00, 1e+00]
  RHS range        [1e+00, 6e+00]
Changed value of parameter IntFeasTol to 1e-09
   Prev: 1e-05  Min: 1e-09  Max: 0.1  Default: 1e-05
Changed value of parameter TimeLimit to 120.0
   Prev: 1e+100  Min: 0.0  Max: 1e+100  Default: 1e+100
Optimize a model with 1947 rows, 1065 columns and 5095 nonzeros
Variable types: 0 continuous, 1065 integer (1065 binary)
Coefficient statistics:
  Matrix range     [1e+00, 3e+00]
  Objective range  [1e+00, 1e+00]
  Bounds range     [1e+00, 1e+00]
  RHS range        [1e+00, 3e+00]
Presolve removed 1190 rows and 458 columns
Presolve time: 0.03s
Presolved: 757 rows, 607 columns, 3108 nonzeros
Variable types: 0 continuous, 607 integer (607 binary)

Root relaxation: objective 8.478297e-04, 396 iterations, 0.01 seconds

    Nodes    |    Current Node    |     Objective Bounds      |     Work
 Expl Unexpl |  Obj  Depth IntInf | Incumbent    BestBd   Gap | It/Node Time

     0     0    0.00085    0  119          -    0.00085      -     -    0s
     0     0    0.00498    0  155          -    0.00498      -     -    0s
     0     0    0.00969    0  167          -    0.00969      -     -    0s
     0     0    0.04004    0  127          -    0.04004      -     -    0s
     0     0    0.05248    0  139          -    0.05248      -     -    0s
     0     0    0.06591    0  148          -    0.06591      -     -    0s
H    0     0                       3.0000000    0.06591  97.8%     -    0s
     0     0    0.06920    0  166    3.00000    0.06920  97.7%     -    0s
     0     0    0.10650    0  188    3.00000    0.10650  96.4%     -    0s
H    0     0                       2.0000000    0.10650  94.7%     -    0s
     0     0    0.11145    0  192    2.00000    0.11145  94.4%     -    0s
     0     0    0.11563    0  158    2.00000    0.11563  94.2%     -    0s
     0     0    0.11563    0  143    2.00000    0.11563  94.2%     -    0s
     0     0    0.11563    0  170    2.00000    0.11563  94.2%     -    0s
     0     0    0.11563    0  155    2.00000    0.11563  94.2%     -    0s
     0     0    0.19288    0  159    2.00000    0.19288  90.4%     -    0s
     0     0    0.19663    0  171    2.00000    0.19663  90.2%     -    0s
     0     0    0.20640    0  184    2.00000    0.20640  89.7%     -    0s
     0     0    0.20717    0  176    2.00000    0.20717  89.6%     -    0s
     0     0    0.20727    0  175    2.00000    0.20727  89.6%     -    0s
     0     0    0.20727    0  175    2.00000    0.20727  89.6%     -    0s
     0     0    0.20727    0  156    2.00000    0.20727  89.6%     -    0s
     0     2    0.20727    0  155    2.00000    0.20727  89.6%     -    0s

Cutting planes:
  Gomory: 4
  Implied bound: 83
  Clique: 8
  MIR: 4
  Zero half: 4

Explored 133 nodes (3879 simplex iterations) in 0.38 seconds
Thread count was 4 (of 4 available processors)

Solution count 2: 2 3 
Pool objective bound 2

Optimal solution found (tolerance 1.00e-04)
Best objective 2.000000000000e+00, best bound 2.000000000000e+00, gap 0.0000%
Optimize a model with 1947 rows, 1065 columns and 5095 nonzeros
Variable types: 0 continuous, 1065 integer (1065 binary)
Coefficient statistics:
  Matrix range     [1e+00, 3e+00]
  Objective range  [1e+00, 5e+00]
  Bounds range     [1e+00, 1e+00]
  RHS range        [1e+00, 3e+00]
Presolve removed 1190 rows and 458 columns
Presolve time: 0.03s
Presolved: 757 rows, 607 columns, 3108 nonzeros

Loaded MIP start with objective 2

Variable types: 0 continuous, 607 integer (607 binary)

Root relaxation: objective 1.711310e-01, 177 iterations, 0.00 seconds

    Nodes    |    Current Node    |     Objective Bounds      |     Work
 Expl Unexpl |  Obj  Depth IntInf | Incumbent    BestBd   Gap | It/Node Time

     0     0    0.17113    0   69    2.00000    0.17113  91.4%     -    0s
     0     0     cutoff    0         2.00000    2.00000  0.00%     -    0s

Cutting planes:
  Implied bound: 12
  Clique: 55
  Mod-K: 2

Explored 0 nodes (235 simplex iterations) in 0.08 seconds
Thread count was 4 (of 4 available processors)

Solution count 1: 2 
Pool objective bound 2

Optimal solution found (tolerance 1.00e-04)
Best objective 2.000000000000e+00, best bound 2.000000000000e+00, gap 0.0000%
